<number of tasks>
30

<cycle time>
33

<task times>
1 8
2 7
3 19
4 10
5 2
6 6
7 14
8 10
9 1
10 4
11 14
12 15
13 5
14 12
15 9
16 10
17 2
18 10
19 18
20 16
21 21
22 14
23 16
24 7
25 17
26 9
27 25
28 7
29 14
30 2

<precedence relations>
1,4
1,5
2,11
2,12
3,16
3,17
4,7
5,6
6,7
7,8
8,9
9,26
10,24
12,13
13,14
14,15
14,20
15,22
16,20
17,18
18,19
20,21
20,24
21,22
22,23
23,27
24,25
25,26
26,27
27,28
27,29
29,30

<setup times forward>
1,4:1
1,5:1
1,10:1
1,11:1
1,12:1
1,21:1
1,22:1
1,23:1
2,4:1
2,5:1
2,6:1
2,9:1
2,10:1
2,11:1
2,12:1
3,4:1
3,5:1
3,6:1
3,9:1
3,10:1
3,11:1
3,12:1
4,2:1
4,3:1
4,7:1
4,13:1
4,14:1
4,15:1
4,16:1
4,17:1
4,18:1
4,19:1
4,20:1
4,24:1
4,25:1
5,2:1
5,3:1
5,13:1
5,14:1
5,15:1
5,16:1
5,17:1
5,18:1
5,19:1
5,20:1
5,24:1
5,25:1
6,2:1
6,3:1
6,7:1
6,13:1
6,14:1
6,15:1
6,16:1
6,17:1
6,18:1
6,19:1
6,20:1
6,24:1
6,25:1
7,10:1
7,11:1
7,12:1
7,21:1
7,22:1
7,23:1
8,9:1
8,10:1
8,11:1
8,12:1
8,21:1
8,22:1
8,23:1
9,2:1
9,3:1
9,13:1
9,14:1
9,15:1
9,16:1
9,17:1
9,18:1
9,19:1
9,20:1
9,24:1
9,25:1
9,26:1
10,1:1
10,2:1
10,3:1
10,7:1
10,8:1
10,13:1
10,14:1
10,15:1
10,16:1
10,17:1
10,18:1
10,19:1
10,20:1
10,24:1
11,1:1
11,3:1
11,7:1
11,8:1
11,13:1
11,14:1
11,15:1
11,16:1
11,17:1
11,18:1
11,19:1
11,20:1
11,24:1
11,25:1
11,26:1
12,1:1
12,3:1
12,7:1
12,8:1
12,13:1
12,16:1
12,17:1
12,18:1
12,19:1
13,4:1
13,5:1
13,6:1
13,9:1
13,10:1
13,11:1
14,4:1
14,5:1
14,6:1
14,9:1
14,10:1
14,11:1
15,4:1
15,5:1
15,6:1
15,9:1
15,10:1
15,11:1
15,21:1
15,22:1
16,4:1
16,5:1
16,6:1
16,9:1
16,10:1
16,11:1
16,12:1
17,4:1
17,5:1
17,6:1
17,9:1
17,10:1
17,11:1
17,12:1
17,21:1
17,22:1
17,23:1
17,27:1
17,28:1
17,29:1
17,30:1
18,4:1
18,5:1
18,6:1
18,9:1
18,10:1
18,11:1
18,12:1
18,21:1
18,22:1
18,23:1
18,27:1
18,28:1
18,29:1
18,30:1
19,4:1
19,5:1
19,6:1
19,9:1
19,10:1
19,11:1
19,12:1
19,21:1
19,22:1
19,23:1
19,27:1
19,28:1
19,29:1
19,30:1
20,4:1
20,5:1
20,6:1
20,9:1
20,10:1
20,11:1
20,21:1
21,1:1
21,7:1
21,8:1
21,15:1
21,17:1
21,18:1
21,19:1
21,24:1
21,25:1
21,26:1
22,1:1
22,7:1
22,8:1
22,17:1
22,18:1
22,19:1
22,24:1
22,25:1
22,26:1
23,1:1
23,7:1
23,8:1
23,17:1
23,18:1
23,19:1
23,24:1
23,25:1
23,26:1
24,4:1
24,5:1
24,6:1
24,9:1
24,11:1
24,21:1
24,22:1
24,23:1
25,4:1
25,5:1
25,6:1
25,9:1
25,11:1
25,21:1
25,22:1
25,23:1
26,11:1
26,21:1
26,22:1
26,23:1
26,27:1
27,17:1
27,18:1
27,19:1
28,17:1
28,18:1
28,19:1
29,17:1
29,18:1
29,19:1
30,17:1
30,18:1
30,19:1

<setup times backward>
1,10:1
1,11:1
1,12:1
1,21:1
1,22:1
1,23:1
2,4:1
2,5:1
2,6:1
2,9:1
2,10:1
3,4:1
3,5:1
3,6:1
3,9:1
3,10:1
3,11:1
3,12:1
7,4:1
7,5:1
7,6:1
7,10:1
7,11:1
7,12:1
7,21:1
7,22:1
7,23:1
8,4:1
8,5:1
8,6:1
8,10:1
8,11:1
8,12:1
8,21:1
8,22:1
8,23:1
13,4:1
13,5:1
13,6:1
13,9:1
13,10:1
13,11:1
13,12:1
14,4:1
14,5:1
14,6:1
14,9:1
14,10:1
14,11:1
14,12:1
15,4:1
15,5:1
15,6:1
15,9:1
15,10:1
15,11:1
15,12:1
15,21:1
16,4:1
16,5:1
16,6:1
16,9:1
16,10:1
16,11:1
16,12:1
17,4:1
17,5:1
17,6:1
17,9:1
17,10:1
17,11:1
17,12:1
17,21:1
17,22:1
17,23:1
17,27:1
17,28:1
17,29:1
17,30:1
18,4:1
18,5:1
18,6:1
18,9:1
18,10:1
18,11:1
18,12:1
18,21:1
18,22:1
18,23:1
18,27:1
18,28:1
18,29:1
18,30:1
19,4:1
19,5:1
19,6:1
19,9:1
19,10:1
19,11:1
19,12:1
19,21:1
19,22:1
19,23:1
19,27:1
19,28:1
19,29:1
19,30:1
20,4:1
20,5:1
20,6:1
20,9:1
20,10:1
20,11:1
20,12:1
24,4:1
24,5:1
24,6:1
24,9:1
24,10:1
24,11:1
24,12:1
24,21:1
24,22:1
24,23:1
25,4:1
25,5:1
25,6:1
25,9:1
25,10:1
25,11:1
25,12:1
25,21:1
25,22:1
25,23:1
26,4:1
26,5:1
26,6:1
26,9:1
26,10:1
26,11:1
26,12:1
26,21:1
26,22:1
26,23:1

<end>

<optimal SALBP-1 value>
11


<rand seed>
467321153

